53008.9
157 156 155 154 153 152 141 140 139 138 137 136 135 134 133 132 131 143 142 151 150 149 148 147 144 146 145 120 121 122 124 125 126 127 128 129 130 119 118 117 116 115 37 38 40 39 41 43 42 100 101 102 103 105 104 106 107 109 114 108 111 112 80 81 82 77 76 75 74 85 86 87 90 91 92 89 88 83 84 73 72 71 70 69 68 95 94 93 97 99 98 96 66 67 63 65 64 62 61 60 59 58 57 56 55 54 53 52 51 50 49 48 47 46 44 45 36 34 33 32 30 29 28 27 25 16 17 18 19 20 21 22 23 24 26 15 14 13 12 11 10 9 8 7 6 3 5 4 31 35 110 79 78 113 123 2 1 0 158 
